125
[26,27,28,29,30,31,32,34,35,36,37,38,39,40,41,42,43,45,47,48,49,51,52,53,54,55,56,58,59,60,61,62,63,64,65,68,69,70,71,72,73,74,76,77,78,80,81,82,83,84,85,86,87,88,90,92,93,96,97,99]
[2,3,1,1,1,1,2,1,1,2,1,1,1,1,2,1,1,1,1,2,2,2,2,4,1,3,1,2,1,3,3,4,1,1,2,2,1,1,1,2,2,2,2,3,2,1,1,1,3,1,1,2,1,3,1,2,1,3,1,1]
